
Gurobi 11.0.0 (linux64) logging started Wed Nov 29 17:10:58 2023

Set parameter LogFile to value "wlp01-r-Location-Of-Facilities-GUROBI.txt"
Gurobi Optimizer version 11.0.0 build v11.0.0rc2 (linux64 - "Ubuntu 22.04.2 LTS")

CPU model: 11th Gen Intel(R) Core(TM) i5-1135G7 @ 2.40GHz, instruction set [SSE2|AVX|AVX2|AVX512]
Thread count: 4 physical cores, 8 logical processors, using up to 8 threads

Academic license 2443615 - for non-commercial use only - registered to th___@gmail.com
Optimize a model with 851 rows, 150500 columns and 300750 nonzeros
Model fingerprint: 0xe80aa309
Coefficient statistics:
  Matrix range     [1e+00, 1e+02]
  Objective range  [1e+00, 1e+03]
  Bounds range     [1e+00, 1e+00]
  RHS range        [1e+00, 1e+00]
Presolve time: 0.16s
Presolved: 851 rows, 150500 columns, 300750 nonzeros

Concurrent LP optimizer: dual simplex and barrier
Showing barrier log only...

Ordering time: 0.01s

Barrier statistics:
 AA' NZ     : 1.502e+05
 Factor NZ  : 2.176e+05 (roughly 60 MB of memory)
 Factor Ops : 6.614e+07 (less than 1 second per iteration)
 Threads    : 3

                  Objective                Residual
Iter       Primal          Dual         Primal    Dual     Compl     Time
   0   8.36237688e+05 -2.85214952e+05  3.66e+01 0.00e+00  9.27e+00     0s
   1   3.19580852e+05 -3.34065488e+04  1.17e+01 8.53e-14  2.72e+00     0s
   2   1.10882865e+05  2.14244564e+04  5.29e-01 8.53e-14  3.42e-01     0s
   3   9.43038271e+04  5.40366173e+04  1.42e-02 3.63e-01  1.35e-01     0s
   4   9.10874480e+04  6.15889876e+04  1.11e-02 3.53e-01  9.90e-02     0s
   5   8.96282964e+04  6.38387541e+04  9.88e-03 2.62e-01  8.64e-02     0s
   6   8.72564433e+04  6.43830368e+04  8.08e-03 1.95e-01  7.65e-02     0s
   7   8.43602081e+04  6.53582563e+04  6.00e-03 1.34e-01  6.36e-02     0s
   8   8.03191538e+04  6.59572183e+04  3.81e-03 8.75e-02  4.80e-02     0s
   9   7.75021172e+04  6.75782139e+04  2.58e-03 6.18e-02  3.31e-02     0s
  10   7.54877814e+04  6.84103767e+04  1.97e-03 3.37e-02  2.36e-02     0s
  11   7.43280689e+04  6.85614507e+04  1.60e-03 2.65e-02  1.92e-02     1s
  12   7.27961082e+04  6.86888043e+04  1.12e-03 2.04e-02  1.37e-02     1s
  13   7.13769975e+04  6.88236852e+04  6.89e-04 1.30e-02  8.52e-03     1s
  14   7.05168052e+04  6.89314896e+04  4.46e-04 6.23e-03  5.28e-03     1s
  15   6.96515842e+04  6.89593526e+04  1.87e-04 3.90e-03  2.31e-03     1s
  16   6.95017335e+04  6.89786815e+04  1.43e-04 2.29e-03  1.74e-03     1s

Barrier performed 16 iterations in 0.60 seconds (0.55 work units)
Barrier solve interrupted - model solved by another algorithm


Solved with dual simplex
Iteration    Objective       Primal Inf.    Dual Inf.      Time
   18632    6.9005357e+04   0.000000e+00   0.000000e+00      1s

Solved in 18632 iterations and 0.60 seconds (0.56 work units)
Optimal objective  6.900535746e+04
